
Gurobi 10.0.2 (win64) logging started Wed Jul 10 22:22:45 2024

Set parameter LogFile to value "VRPSTW1.log"
Set parameter MIPGap to value 0
Gurobi Optimizer version 10.0.2 build v10.0.2rc0 (win64)

CPU model: Intel(R) Core(TM) i7-10875H CPU @ 2.30GHz, instruction set [SSE2|AVX|AVX2]
Thread count: 8 physical cores, 16 logical processors, using up to 16 threads

Optimize a model with 881 rows, 486 columns and 3740 nonzeros
Model fingerprint: 0x67c43f2a
Variable types: 66 continuous, 420 integer (420 binary)
Coefficient statistics:
  Matrix range     [1e+00, 2e+02]
  Objective range  [5e-01, 6e+01]
  Bounds range     [1e+00, 2e+02]
  RHS range        [1e+00, 2e+02]
Found heuristic solution: objective 955.4900000
Presolve removed 754 rows and 276 columns
Presolve time: 0.01s
Presolved: 127 rows, 210 columns, 890 nonzeros
Variable types: 0 continuous, 210 integer (175 binary)
Found heuristic solution: objective 937.8700000

Root relaxation: objective 4.717168e+02, 80 iterations, 0.00 seconds (0.00 work units)

    Nodes    |    Current Node    |     Objective Bounds      |     Work
 Expl Unexpl |  Obj  Depth IntInf | Incumbent    BestBd   Gap | It/Node Time

     0     0  471.71678    0   19  937.87000  471.71678  49.7%     -    0s
H    0     0                     574.7100000  471.71678  17.9%     -    0s
H    0     0                     509.0450000  471.71678  7.33%     -    0s
H    0     0                     489.0500000  485.10500  0.81%     -    0s
     0     0  485.10500    0    7  489.05000  485.10500  0.81%     -    0s
     0     0  485.10500    0    7  489.05000  485.10500  0.81%     -    0s

Cutting planes:
  Cover: 4
  Implied bound: 3
  MIR: 7
  StrongCG: 3
  Relax-and-lift: 3

Explored 1 nodes (107 simplex iterations) in 0.03 seconds (0.01 work units)
Thread count was 16 (of 16 available processors)

Solution count 5: 489.05 509.045 574.71 ... 955.49

Optimal solution found (tolerance 0.00e+00)
Best objective 4.890500000000e+02, best bound 4.890500000000e+02, gap 0.0000%

Gurobi 11.0.0 (win64) logging started Wed Sep  4 12:31:47 2024

Set parameter LogFile to value "VRPSTW1.log"
Set parameter MIPGap to value 0
Gurobi Optimizer version 11.0.0 build v11.0.0rc2 (win64 - Windows 11+.0 (22631.2))

CPU model: 13th Gen Intel(R) Core(TM) i7-13650HX, instruction set [SSE2|AVX|AVX2]
Thread count: 14 physical cores, 20 logical processors, using up to 20 threads

Optimize a model with 881 rows, 486 columns and 3740 nonzeros
Model fingerprint: 0x5d3bf9b2
Variable types: 66 continuous, 420 integer (420 binary)
Coefficient statistics:
  Matrix range     [1e+00, 1e+04]
  Objective range  [5e-01, 6e+01]
  Bounds range     [1e+00, 2e+02]
  RHS range        [1e+00, 1e+04]
Found heuristic solution: objective 955.4900000
Presolve removed 754 rows and 276 columns
Presolve time: 0.01s
Presolved: 127 rows, 210 columns, 910 nonzeros
Variable types: 18 continuous, 192 integer (175 binary)
Found heuristic solution: objective 937.8700000

Root relaxation: objective 4.717168e+02, 71 iterations, 0.00 seconds (0.00 work units)

    Nodes    |    Current Node    |     Objective Bounds      |     Work
 Expl Unexpl |  Obj  Depth IntInf | Incumbent    BestBd   Gap | It/Node Time

     0     0  471.71678    0   17  937.87000  471.71678  49.7%     -    0s
H    0     0                     601.7200000  471.71678  21.6%     -    0s
H    0     0                     509.0450000  471.71678  7.33%     -    0s
H    0     0                     507.8550000  471.71678  7.12%     -    0s
H    0     0                     499.9800000  485.10500  2.98%     -    0s
H    0     0                     493.1700000  485.10500  1.64%     -    0s
     0     0  485.10500    0    7  493.17000  485.10500  1.64%     -    0s
     0     0  485.10500    0    7  493.17000  485.10500  1.64%     -    0s
H    0     0                     492.4800000  489.05000  0.70%     -    0s
H    0     0                     492.0800000  489.05000  0.62%     -    0s
H    0     0                     492.0500000  489.05000  0.61%     -    0s
H    0     0                     489.0500000  489.05000  0.00%     -    0s

Cutting planes:
  Cover: 4
  Implied bound: 3
  MIR: 6
  RLT: 2
  Relax-and-lift: 3

Explored 1 nodes (98 simplex iterations) in 0.02 seconds (0.01 work units)
Thread count was 20 (of 20 available processors)

Solution count 10: 489.05 492.05 492.08 ... 937.87

Optimal solution found (tolerance 0.00e+00)
Best objective 4.890500000000e+02, best bound 4.890500000000e+02, gap 0.0000%

Gurobi 11.0.0 (win64) logging started Wed Sep  4 12:41:52 2024

Set parameter LogFile to value "VRPSTW1.log"
Set parameter MIPGap to value 0
Gurobi Optimizer version 11.0.0 build v11.0.0rc2 (win64 - Windows 11+.0 (22631.2))

CPU model: 13th Gen Intel(R) Core(TM) i7-13650HX, instruction set [SSE2|AVX|AVX2]
Thread count: 14 physical cores, 20 logical processors, using up to 20 threads

Optimize a model with 881 rows, 486 columns and 3740 nonzeros
Model fingerprint: 0x5d3bf9b2
Variable types: 66 continuous, 420 integer (420 binary)
Coefficient statistics:
  Matrix range     [1e+00, 1e+04]
  Objective range  [5e-01, 6e+01]
  Bounds range     [1e+00, 2e+02]
  RHS range        [1e+00, 1e+04]
Found heuristic solution: objective 955.4900000
Presolve removed 754 rows and 276 columns
Presolve time: 0.00s
Presolved: 127 rows, 210 columns, 910 nonzeros
Variable types: 18 continuous, 192 integer (175 binary)
Found heuristic solution: objective 937.8700000

Root relaxation: objective 4.717168e+02, 71 iterations, 0.00 seconds (0.00 work units)

    Nodes    |    Current Node    |     Objective Bounds      |     Work
 Expl Unexpl |  Obj  Depth IntInf | Incumbent    BestBd   Gap | It/Node Time

     0     0  471.71678    0   17  937.87000  471.71678  49.7%     -    0s
H    0     0                     601.7200000  471.71678  21.6%     -    0s
H    0     0                     509.0450000  471.71678  7.33%     -    0s
H    0     0                     507.8550000  471.71678  7.12%     -    0s
H    0     0                     499.9800000  485.10500  2.98%     -    0s
H    0     0                     493.1700000  485.10500  1.64%     -    0s
     0     0  485.10500    0    7  493.17000  485.10500  1.64%     -    0s
     0     0  485.10500    0    7  493.17000  485.10500  1.64%     -    0s
H    0     0                     492.4800000  489.05000  0.70%     -    0s
H    0     0                     492.0800000  489.05000  0.62%     -    0s
H    0     0                     492.0500000  489.05000  0.61%     -    0s
H    0     0                     489.0500000  489.05000  0.00%     -    0s

Cutting planes:
  Cover: 4
  Implied bound: 3
  MIR: 6
  RLT: 2
  Relax-and-lift: 3

Explored 1 nodes (98 simplex iterations) in 0.01 seconds (0.01 work units)
Thread count was 20 (of 20 available processors)

Solution count 10: 489.05 492.05 492.08 ... 937.87

Optimal solution found (tolerance 0.00e+00)
Best objective 4.890500000000e+02, best bound 4.890500000000e+02, gap 0.0000%

Gurobi 11.0.0 (win64) logging started Thu Sep  5 04:15:46 2024

Set parameter LogFile to value "VRPSTW1.log"
Set parameter MIPGap to value 0
Gurobi Optimizer version 11.0.0 build v11.0.0rc2 (win64 - Windows 11+.0 (22631.2))

CPU model: 13th Gen Intel(R) Core(TM) i7-13650HX, instruction set [SSE2|AVX|AVX2]
Thread count: 14 physical cores, 20 logical processors, using up to 20 threads

Optimize a model with 881 rows, 486 columns and 3740 nonzeros
Model fingerprint: 0x5d3bf9b2
Variable types: 66 continuous, 420 integer (420 binary)
Coefficient statistics:
  Matrix range     [1e+00, 1e+04]
  Objective range  [5e-01, 6e+01]
  Bounds range     [1e+00, 2e+02]
  RHS range        [1e+00, 1e+04]
Found heuristic solution: objective 955.4900000
Presolve removed 754 rows and 276 columns
Presolve time: 0.00s
Presolved: 127 rows, 210 columns, 910 nonzeros
Variable types: 18 continuous, 192 integer (175 binary)
Found heuristic solution: objective 937.8700000

Root relaxation: objective 4.717168e+02, 71 iterations, 0.00 seconds (0.00 work units)

    Nodes    |    Current Node    |     Objective Bounds      |     Work
 Expl Unexpl |  Obj  Depth IntInf | Incumbent    BestBd   Gap | It/Node Time

     0     0  471.71678    0   17  937.87000  471.71678  49.7%     -    0s
H    0     0                     601.7200000  471.71678  21.6%     -    0s
H    0     0                     509.0450000  471.71678  7.33%     -    0s
H    0     0                     507.8550000  471.71678  7.12%     -    0s
H    0     0                     499.9800000  485.10500  2.98%     -    0s
H    0     0                     493.1700000  485.10500  1.64%     -    0s
     0     0  485.10500    0    7  493.17000  485.10500  1.64%     -    0s
     0     0  485.10500    0    7  493.17000  485.10500  1.64%     -    0s
H    0     0                     492.4800000  489.05000  0.70%     -    0s
H    0     0                     492.0800000  489.05000  0.62%     -    0s
H    0     0                     492.0500000  489.05000  0.61%     -    0s
H    0     0                     489.0500000  489.05000  0.00%     -    0s

Cutting planes:
  Cover: 4
  Implied bound: 3
  MIR: 6
  RLT: 2
  Relax-and-lift: 3

Explored 1 nodes (98 simplex iterations) in 0.02 seconds (0.01 work units)
Thread count was 20 (of 20 available processors)

Solution count 10: 489.05 492.05 492.08 ... 937.87

Optimal solution found (tolerance 0.00e+00)
Best objective 4.890500000000e+02, best bound 4.890500000000e+02, gap 0.0000%

Gurobi 11.0.0 (win64) logging started Thu Sep  5 04:20:48 2024

Set parameter LogFile to value "VRPSTW1.log"
Set parameter MIPGap to value 0
Gurobi Optimizer version 11.0.0 build v11.0.0rc2 (win64 - Windows 11+.0 (22631.2))

CPU model: 13th Gen Intel(R) Core(TM) i7-13650HX, instruction set [SSE2|AVX|AVX2]
Thread count: 14 physical cores, 20 logical processors, using up to 20 threads

Optimize a model with 881 rows, 486 columns and 3740 nonzeros
Model fingerprint: 0x5d3bf9b2
Variable types: 66 continuous, 420 integer (420 binary)
Coefficient statistics:
  Matrix range     [1e+00, 1e+04]
  Objective range  [5e-01, 6e+01]
  Bounds range     [1e+00, 2e+02]
  RHS range        [1e+00, 1e+04]
Found heuristic solution: objective 955.4900000
Presolve removed 754 rows and 276 columns
Presolve time: 0.00s
Presolved: 127 rows, 210 columns, 910 nonzeros
Variable types: 18 continuous, 192 integer (175 binary)
Found heuristic solution: objective 937.8700000

Root relaxation: objective 4.717168e+02, 71 iterations, 0.00 seconds (0.00 work units)

    Nodes    |    Current Node    |     Objective Bounds      |     Work
 Expl Unexpl |  Obj  Depth IntInf | Incumbent    BestBd   Gap | It/Node Time

     0     0  471.71678    0   17  937.87000  471.71678  49.7%     -    0s
H    0     0                     601.7200000  471.71678  21.6%     -    0s
H    0     0                     509.0450000  471.71678  7.33%     -    0s
H    0     0                     507.8550000  471.71678  7.12%     -    0s
H    0     0                     499.9800000  485.10500  2.98%     -    0s
H    0     0                     493.1700000  485.10500  1.64%     -    0s
     0     0  485.10500    0    7  493.17000  485.10500  1.64%     -    0s
     0     0  485.10500    0    7  493.17000  485.10500  1.64%     -    0s
H    0     0                     492.4800000  489.05000  0.70%     -    0s
H    0     0                     492.0800000  489.05000  0.62%     -    0s
H    0     0                     492.0500000  489.05000  0.61%     -    0s
H    0     0                     489.0500000  489.05000  0.00%     -    0s

Cutting planes:
  Cover: 4
  Implied bound: 3
  MIR: 6
  RLT: 2
  Relax-and-lift: 3

Explored 1 nodes (98 simplex iterations) in 0.02 seconds (0.01 work units)
Thread count was 20 (of 20 available processors)

Solution count 10: 489.05 492.05 492.08 ... 937.87

Optimal solution found (tolerance 0.00e+00)
Best objective 4.890500000000e+02, best bound 4.890500000000e+02, gap 0.0000%

Gurobi 11.0.0 (win64) logging started Fri Sep  6 02:23:44 2024

Set parameter LogFile to value "VRPSTW1.log"
Set parameter MIPGap to value 0
Gurobi Optimizer version 11.0.0 build v11.0.0rc2 (win64 - Windows 11+.0 (22631.2))

CPU model: 13th Gen Intel(R) Core(TM) i7-13650HX, instruction set [SSE2|AVX|AVX2]
Thread count: 14 physical cores, 20 logical processors, using up to 20 threads

Optimize a model with 881 rows, 486 columns and 3740 nonzeros
Model fingerprint: 0x5d3bf9b2
Variable types: 66 continuous, 420 integer (420 binary)
Coefficient statistics:
  Matrix range     [1e+00, 1e+04]
  Objective range  [5e-01, 6e+01]
  Bounds range     [1e+00, 2e+02]
  RHS range        [1e+00, 1e+04]
Found heuristic solution: objective 955.4900000
Presolve removed 754 rows and 276 columns
Presolve time: 0.00s
Presolved: 127 rows, 210 columns, 910 nonzeros
Variable types: 18 continuous, 192 integer (175 binary)
Found heuristic solution: objective 937.8700000

Root relaxation: objective 4.717168e+02, 71 iterations, 0.00 seconds (0.00 work units)

    Nodes    |    Current Node    |     Objective Bounds      |     Work
 Expl Unexpl |  Obj  Depth IntInf | Incumbent    BestBd   Gap | It/Node Time

     0     0  471.71678    0   17  937.87000  471.71678  49.7%     -    0s
H    0     0                     601.7200000  471.71678  21.6%     -    0s
H    0     0                     509.0450000  471.71678  7.33%     -    0s
H    0     0                     507.8550000  471.71678  7.12%     -    0s
H    0     0                     499.9800000  485.10500  2.98%     -    0s
H    0     0                     493.1700000  485.10500  1.64%     -    0s
     0     0  485.10500    0    7  493.17000  485.10500  1.64%     -    0s
     0     0  485.10500    0    7  493.17000  485.10500  1.64%     -    0s
H    0     0                     492.4800000  489.05000  0.70%     -    0s
H    0     0                     492.0800000  489.05000  0.62%     -    0s
H    0     0                     492.0500000  489.05000  0.61%     -    0s
H    0     0                     489.0500000  489.05000  0.00%     -    0s

Cutting planes:
  Cover: 4
  Implied bound: 3
  MIR: 6
  RLT: 2
  Relax-and-lift: 3

Explored 1 nodes (98 simplex iterations) in 0.02 seconds (0.01 work units)
Thread count was 20 (of 20 available processors)

Solution count 10: 489.05 492.05 492.08 ... 937.87

Optimal solution found (tolerance 0.00e+00)
Best objective 4.890500000000e+02, best bound 4.890500000000e+02, gap 0.0000%

Gurobi 11.0.0 (win64) logging started Fri Sep  6 02:24:38 2024

Set parameter LogFile to value "VRPSTW1.log"
Set parameter MIPGap to value 0
Gurobi Optimizer version 11.0.0 build v11.0.0rc2 (win64 - Windows 11+.0 (22631.2))

CPU model: 13th Gen Intel(R) Core(TM) i7-13650HX, instruction set [SSE2|AVX|AVX2]
Thread count: 14 physical cores, 20 logical processors, using up to 20 threads

Optimize a model with 881 rows, 486 columns and 3740 nonzeros
Model fingerprint: 0x5d3bf9b2
Variable types: 66 continuous, 420 integer (420 binary)
Coefficient statistics:
  Matrix range     [1e+00, 1e+04]
  Objective range  [5e-01, 6e+01]
  Bounds range     [1e+00, 2e+02]
  RHS range        [1e+00, 1e+04]
Found heuristic solution: objective 955.4900000
Presolve removed 754 rows and 276 columns
Presolve time: 0.01s
Presolved: 127 rows, 210 columns, 910 nonzeros
Variable types: 18 continuous, 192 integer (175 binary)
Found heuristic solution: objective 937.8700000

Root relaxation: objective 4.717168e+02, 71 iterations, 0.00 seconds (0.00 work units)

    Nodes    |    Current Node    |     Objective Bounds      |     Work
 Expl Unexpl |  Obj  Depth IntInf | Incumbent    BestBd   Gap | It/Node Time

     0     0  471.71678    0   17  937.87000  471.71678  49.7%     -    0s
H    0     0                     601.7200000  471.71678  21.6%     -    0s
H    0     0                     509.0450000  471.71678  7.33%     -    0s
H    0     0                     507.8550000  471.71678  7.12%     -    0s
H    0     0                     499.9800000  485.10500  2.98%     -    0s
H    0     0                     493.1700000  485.10500  1.64%     -    0s
     0     0  485.10500    0    7  493.17000  485.10500  1.64%     -    0s
     0     0  485.10500    0    7  493.17000  485.10500  1.64%     -    0s
H    0     0                     492.4800000  489.05000  0.70%     -    0s
H    0     0                     492.0800000  489.05000  0.62%     -    0s
H    0     0                     492.0500000  489.05000  0.61%     -    0s
H    0     0                     489.0500000  489.05000  0.00%     -    0s

Cutting planes:
  Cover: 4
  Implied bound: 3
  MIR: 6
  RLT: 2
  Relax-and-lift: 3

Explored 1 nodes (98 simplex iterations) in 0.02 seconds (0.01 work units)
Thread count was 20 (of 20 available processors)

Solution count 10: 489.05 492.05 492.08 ... 937.87

Optimal solution found (tolerance 0.00e+00)
Best objective 4.890500000000e+02, best bound 4.890500000000e+02, gap 0.0000%
